Academic license - for non-commercial use only
Gurobi Optimizer version 9.0.3 build v9.0.3rc0 (mac64)
Optimize a model with 104216 rows, 100800 columns and 576950 nonzeros
Model fingerprint: 0xdf242efe
Variable types: 0 continuous, 100800 integer (100800 binary)
Coefficient statistics:
  Matrix range     [1e+00, 1e+00]
  Objective range  [1e+01, 3e+04]
  Bounds range     [1e+00, 1e+00]
  RHS range        [1e+00, 2e+02]
Presolve added 0 rows and 1450 columns
Presolve removed 50 rows and 0 columns
Presolve time: 1.67s
Presolved: 104166 rows, 102250 columns, 431350 nonzeros
Variable types: 0 continuous, 102250 integer (102250 binary)
Found heuristic solution: objective 193021.00000

Concurrent LP optimizer: dual simplex and barrier
Showing barrier log only...

Root barrier log...

Ordering time: 0.29s

Barrier statistics:
 Dense cols : 400
 AA' NZ     : 3.344e+05
 Factor NZ  : 1.300e+06 (roughly 100 MBytes of memory)
 Factor Ops : 3.284e+08 (less than 1 second per iteration)
 Threads    : 3

                  Objective                Residual
Iter       Primal          Dual         Primal    Dual     Compl     Time
   0   7.51086399e+07 -1.03487560e+08  3.08e+02 2.94e+01  7.83e+03     3s
   1   5.28155654e+05 -9.00392225e+07  1.37e+00 7.44e+01  3.25e+02     3s
   2   2.37881936e+05 -2.73683697e+07  1.27e-01 2.09e+01  9.13e+01     3s
   3   2.11611019e+05 -9.21376397e+06  1.33e-02 6.63e+00  3.08e+01     4s
   4   2.04439990e+05 -5.34914062e+05  3.62e-03 1.21e+00  2.41e+00     4s
   5   1.94302332e+05 -5.65741005e+04  2.22e-03 2.96e-01  8.17e-01     4s
   6   1.87864204e+05  4.89553678e+04  1.74e-03 1.44e-01  4.52e-01     4s
   7   1.83797447e+05  8.67069579e+04  1.52e-03 9.06e-02  3.16e-01     4s
   8   1.81073527e+05  1.08521574e+05  1.37e-03 5.93e-02  2.36e-01     4s
   9   1.78227827e+05  1.21571768e+05  1.24e-03 4.05e-02  1.84e-01     4s
  10   1.70967531e+05  1.32865055e+05  8.93e-04 2.46e-02  1.24e-01     4s
  11   1.67239990e+05  1.39264341e+05  7.28e-04 1.59e-02  9.08e-02     5s
  12   1.63410684e+05  1.42875768e+05  5.62e-04 1.10e-02  6.67e-02     5s
  13   1.61470589e+05  1.45147985e+05  4.74e-04 7.75e-03  5.30e-02     5s
  14   1.60444626e+05  1.46505610e+05  4.24e-04 5.96e-03  4.52e-02     5s
  15   1.58731254e+05  1.48257136e+05  3.50e-04 3.80e-03  3.40e-02     5s
  16   1.56652627e+05  1.48856515e+05  2.60e-04 2.97e-03  2.53e-02     5s
  17   1.55867540e+05  1.49544772e+05  2.26e-04 2.16e-03  2.05e-02     5s
  18   1.55168765e+05  1.49959674e+05  1.94e-04 1.72e-03  1.69e-02     6s
  19   1.54406212e+05  1.50291611e+05  1.56e-04 1.44e-03  1.33e-02     6s
  20   1.53856711e+05  1.50481345e+05  1.29e-04 1.19e-03  1.09e-02     6s
  21   1.53377220e+05  1.50716704e+05  1.05e-04 1.04e-03  8.62e-03     6s
  22   1.53062903e+05  1.50948196e+05  8.96e-05 9.36e-04  6.85e-03     6s
  23   1.52607936e+05  1.51059522e+05  6.60e-05 7.38e-04  5.01e-03     6s
  24   1.52427110e+05  1.51111177e+05  5.63e-05 6.32e-04  4.26e-03     6s
  25   1.52208389e+05  1.51193057e+05  4.53e-05 4.61e-04  3.29e-03     6s
  26   1.52041593e+05  1.51240014e+05  3.61e-05 3.54e-04  2.59e-03     6s
  27   1.51956520e+05  1.51285689e+05  3.15e-05 2.69e-04  2.17e-03     7s
  28   1.51889417e+05  1.51314554e+05  2.76e-05 2.06e-04  1.86e-03     7s
  29   1.51820049e+05  1.51338137e+05  2.36e-05 1.46e-04  1.56e-03     7s
  30   1.51768516e+05  1.51346790e+05  2.07e-05 1.30e-04  1.36e-03     7s
  31   1.51694461e+05  1.51366163e+05  1.66e-05 1.05e-04  1.06e-03     7s
  32   1.51636148e+05  1.51377874e+05  1.31e-05 7.67e-05  8.35e-04     7s
  33   1.51581513e+05  1.51385676e+05  1.01e-05 6.05e-05  6.33e-04     7s
  34   1.51545881e+05  1.51394087e+05  8.03e-06 7.53e-05  4.91e-04     7s
  35   1.51520101e+05  1.51398829e+05  6.39e-06 5.58e-05  3.92e-04     8s
  36   1.51491519e+05  1.51402592e+05  4.57e-06 4.49e-05  2.88e-04     8s
  37   1.51475492e+05  1.51405364e+05  3.57e-06 4.05e-05  2.27e-04     8s
  38   1.51458068e+05  1.51407624e+05  2.50e-06 3.16e-05  1.63e-04     8s
  39   1.51449544e+05  1.51410496e+05  1.96e-06 2.50e-05  1.26e-04     8s
  40   1.51439839e+05  1.51413487e+05  1.35e-06 1.38e-05  8.52e-05     8s
  41   1.51435285e+05  1.51414655e+05  1.08e-06 1.07e-05  6.67e-05     8s
  42   1.51428252e+05  1.51415432e+05  6.36e-07 7.93e-06  4.15e-05     8s
  43   1.51425947e+05  1.51415929e+05  4.97e-07 6.40e-06  3.24e-05     8s
  44   1.51423628e+05  1.51416342e+05  3.51e-07 4.97e-06  2.36e-05     8s
  45   1.51421490e+05  1.51417166e+05  2.19e-07 2.02e-06  1.40e-05     9s
  46   1.51420028e+05  1.51417368e+05  1.36e-07 1.68e-06  8.61e-06     9s
  47   1.51419904e+05  1.51417490e+05  1.28e-07 1.27e-06  7.81e-06     9s
  48   1.51419509e+05  1.51417581e+05  1.03e-07 9.14e-07  6.23e-06     9s
  49   1.51419001e+05  1.51417699e+05  7.10e-08 4.35e-07  4.21e-06     9s
  50   1.51418608e+05  1.51417735e+05  4.74e-08 3.22e-07  2.82e-06     9s
  51   1.51418447e+05  1.51417807e+05  3.82e-08 1.44e-07  2.07e-06     9s
  52   1.51418136e+05  1.51417829e+05  1.75e-08 1.44e-07  9.92e-07     9s
  53   1.51418118e+05  1.51417833e+05  1.63e-08 1.27e-07  9.19e-07     9s
  54   1.51418042e+05  1.51417847e+05  1.13e-08 1.40e-07  6.32e-07     9s
  55   1.51417935e+05  1.51417858e+05  4.51e-09 1.73e-07  2.49e-07     9s
  56   1.51417910e+05  1.51417861e+05  2.86e-09 6.36e-08  1.59e-07    10s
  57   1.51417890e+05  1.51417863e+05  1.63e-09 3.38e-09  8.99e-08    10s
  58   1.51417870e+05  1.51417863e+05  3.48e-10 2.17e-09  2.15e-08    10s
  59   1.51417870e+05  1.51417863e+05  4.80e-09 2.32e-09  2.12e-08    10s
  60   1.51417870e+05  1.51417863e+05  1.10e-08 2.60e-08  2.11e-08    10s
  61   1.51417870e+05  1.51417863e+05  1.10e-08 2.66e-08  2.11e-08    10s

Barrier solved model in 61 iterations and 9.99 seconds
Optimal objective 1.51417870e+05


Root crossover log...

   50127 DPushes remaining with DInf 0.0000000e+00                10s
       0 DPushes remaining with DInf 0.0000000e+00                11s

     547 PPushes remaining with PInf 4.0981065e-06                11s
       0 PPushes remaining with PInf 0.0000000e+00                11s

  Push phase complete: Pinf 0.0000000e+00, Dinf 4.4597215e-10     11s


Root simplex log...

Iteration    Objective       Primal Inf.    Dual Inf.      Time
   11861    1.5141786e+05   0.000000e+00   0.000000e+00     11s

Solved with barrier

Root relaxation: objective 1.514179e+05, 11861 iterations, 8.53 seconds

    Nodes    |    Current Node    |     Objective Bounds      |     Work
 Expl Unexpl |  Obj  Depth IntInf | Incumbent    BestBd   Gap | It/Node Time

     0     0 151417.864    0 11051 193021.000 151417.864  21.6%     -   12s
H    0     0                    161353.00000 151417.864  6.16%     -   13s
H    0     0                    161235.00000 151417.864  6.09%     -   21s
     0     0 151417.864    0 11051 161235.000 151417.864  6.09%     -   41s
     0     2 151417.864    0 11051 161235.000 151417.864  6.09%     -   55s
     1     4 151571.806    1 11345 161235.000 151417.884  6.09% 14581  140s
     3     8 151756.513    2 11828 161235.000 151571.833  5.99% 21465  184s
     7    12 151922.606    3 11661 161235.000 151756.675  5.88% 16952  207s
H    8    12                    156145.00000 151756.675  2.81% 14833  207s
    11    16 152265.851    3 12050 156145.000 151922.607  2.70% 14101  249s
    15    20 151923.321    4 11527 156145.000 151923.321  2.70% 13103  279s
    19    22 153904.706    5 5180 156145.000 151923.356  2.70% 13197  300s

Explored 21 nodes (273831 simplex iterations) in 300.06 seconds
Thread count was 8 (of 8 available processors)

Solution count 4: 156145 161235 161353 193021 

Time limit reached
Best objective 1.561450000000e+05, best bound 1.519240000000e+05, gap 2.7033%

User-callback calls 90443, time in user-callback 0.61 sec
Solution written to /Users/mdeboute/Desktop/Etudes/Master/M2/S9/GOPP/Projet/multi-period-flp/solution/instSingle_I50_J250_T8_1_result.txt
